
Log started (V12.10.0.0) Fri Apr  9 06:53:24 2021


Problem 'asset.lp' read.
Read time = 0.01 sec. (0.10 ticks)
New value for default parallel thread count: 1
New value for time limit in seconds: 150
Version identifier: 12.10.0.0 | 2019-11-26 | 843d4de
CPXPARAM_Threads                                 1
CPXPARAM_TimeLimit                               150
Found incumbent of value 0.000000 after 0.00 sec. (0.03 ticks)
Tried aggregator 3 times.
MIP Presolve eliminated 373 rows and 179 columns.
MIP Presolve modified 805 coefficients.
Aggregator did 257 substitutions.
Reduced MIP has 383 rows, 546 columns, and 1959 nonzeros.
Reduced MIP has 424 binaries, 98 generals, 0 SOSs, and 0 indicators.
Presolve time = 0.01 sec. (4.69 ticks)
Probing fixed 7 vars, tightened 3 bounds.
Probing time = 0.00 sec. (1.13 ticks)
Cover probing fixed 0 vars, tightened 4 bounds.
Tried aggregator 2 times.
Detecting symmetries...
MIP Presolve eliminated 25 rows and 20 columns.
MIP Presolve modified 124 coefficients.
Aggregator did 1 substitutions.
Reduced MIP has 357 rows, 525 columns, and 1811 nonzeros.
Reduced MIP has 407 binaries, 95 generals, 0 SOSs, and 0 indicators.
Presolve time = 0.01 sec. (3.14 ticks)
Probing time = 0.00 sec. (1.02 ticks)
Cover probing fixed 0 vars, tightened 1 bounds.
Clique table members: 1347.
Tightened 1 constraints.
MIP emphasis: balance optimality and feasibility.
MIP search method: dynamic search.
Parallel mode: none, using 1 thread.
Root relaxation solution time = 0.00 sec. (2.48 ticks)

        Nodes                                         Cuts/
   Node  Left     Objective  IInf  Best Integer    Best Bound    ItCnt     Gap

*     0+    0                            0.0000      170.0000              --- 
      0     0      144.0276   105        0.0000      144.0276      222     --- 
      0     0      137.6428   105        0.0000     Cuts: 122      378     --- 
      0     0      133.0557   105        0.0000     Cuts: 143      480     --- 
      0     0      132.7255   105        0.0000      Cuts: 71      528     --- 
      0     0      132.4935   105        0.0000      Cuts: 94      568     --- 
      0     0      132.3415   105        0.0000      Cuts: 88      610     --- 
Detecting symmetries...
      0     0      131.9907   105        0.0000      Cuts: 64      665     --- 
      0     0      131.9266   105        0.0000     Cuts: 115      722     --- 
      0     0      131.9022   105        0.0000      Cuts: 71      759     --- 
      0     0      131.8950   105        0.0000      Cuts: 44      784     --- 
      0     0      131.8946   105        0.0000      Cuts: 11      803     --- 
      0     0      131.8946   105        0.0000      Cuts: 95      864     --- 
*     0+    0                           96.0000      131.8946            37.39%
Detecting symmetries...
      0     2      131.8946   108       96.0000      131.8946      864   37.39%
Elapsed time = 0.14 sec. (107.20 ticks, tree = 0.01 MB, solutions = 1)
*    80    57      integral     0      102.0000      131.6761     1849   29.09%
*   130+   86                          110.0000      131.6761            19.71%

Performing restart 1

Repeating presolve.
Tried aggregator 1 time.
MIP Presolve modified 436 coefficients.
Reduced MIP has 357 rows, 525 columns, and 1579 nonzeros.
Reduced MIP has 407 binaries, 95 generals, 0 SOSs, and 0 indicators.
Presolve time = 0.00 sec. (1.42 ticks)
Tried aggregator 1 time.
MIP Presolve modified 36 coefficients.
Reduced MIP has 357 rows, 525 columns, and 1579 nonzeros.
Reduced MIP has 407 binaries, 95 generals, 0 SOSs, and 0 indicators.
Presolve time = 0.00 sec. (1.17 ticks)
Represolve time = 0.01 sec. (7.28 ticks)
    516     0      130.4806   127      110.0000     Cuts: 103     7896   18.62%
    516     0      129.9493   127      110.0000     Cuts: 124     8008   18.14%
    516     0      129.4135   127      110.0000     Cuts: 129     8082   17.65%
    516     0      128.9040   127      110.0000     Cuts: 114     8175   17.19%
    516     0      128.6896   127      110.0000     Cuts: 103     8276   16.99%
    516     0      128.6491   127      110.0000     Cuts: 114     8359   16.95%
    516     0      128.3382   127      110.0000     Cuts: 109     8506   16.67%
    516     0      128.1759   127      110.0000     Cuts: 119     8565   16.52%
    516     0      128.1114   127      110.0000      Cuts: 87     8622   16.46%
    516     0      128.0990   127      110.0000      Cuts: 73     8670   16.45%
    516     0      127.8995   127      110.0000      Cuts: 54     8719   16.27%
    516     0      127.8943   127      110.0000      Cuts: 41     8777   16.27%
    516     0      127.7881   127      110.0000      Cuts: 46     8839   16.17%
    516     0      127.7515   127      110.0000      Cuts: 46     8876   16.14%
    516     0      127.7385   127      110.0000      Cuts: 36     8902   16.13%
    516     0      127.6895   127      110.0000      Cuts: 43     8960   16.08%
    516     0      127.6214   127      110.0000      Cuts: 86     9030   16.02%
    516     0      127.5877   127      110.0000      Cuts: 40     9071   15.99%
    516     0      127.5703   127      110.0000      Cuts: 69     9107   15.97%
    516     0      127.5544   127      110.0000      Cuts: 50     9166   15.96%
    516     0      127.5391   127      110.0000      Cuts: 56     9205   15.94%
    516     0      127.4297   127      110.0000      Cuts: 50     9249   15.85%
    516     0      127.2351   127      110.0000      Cuts: 47     9313   15.67%
    516     0      127.1511   127      110.0000      Cuts: 83     9438   15.59%
    516     0      126.9933   127      110.0000     Cuts: 128     9509   15.45%
    516     0      126.9322   127      110.0000      Cuts: 56     9550   15.39%
    516     0      126.8955   127      110.0000      Cuts: 53     9592   15.36%
    516     0      126.7901   127      110.0000      Cuts: 70     9747   15.26%
    516     0      126.6947   127      110.0000     Cuts: 107     9829   15.18%
    516     0      126.6063   127      110.0000     Cuts: 116     9878   15.10%
    516     0      126.6023   127      110.0000      Cuts: 56     9924   15.09%
    516     0      126.5503   127      110.0000      Cuts: 39     9980   15.05%
    516     0      126.5227   127      110.0000      Cuts: 61    10074   15.02%
    516     0      126.3976   127      110.0000      Cuts: 40    10151   14.91%
    516     0      126.3396   127      110.0000     Cuts: 131    10264   14.85%
    516     0      126.2830   127      110.0000      Cuts: 66    10339   14.80%
    516     0      126.2448   127      110.0000      Cuts: 93    10410   14.77%
    516     0      126.2445   127      110.0000      Cuts: 35    10456   14.77%
    516     0      126.2437   127      110.0000      Cuts: 17    10485   14.77%
    516     2      126.2437    92      110.0000      126.1362    10485   14.67%
    543    17      119.5807    90      110.0000      126.0697    11712   14.61%
    653    86      124.7346   115      110.0000      124.8131    14510   13.47%
*   736+  133                          112.0000      124.3750            11.05%
    844   210      121.3515    99      112.0000      123.6458    19814   10.40%
    996   296      116.1120    79      112.0000      122.8960    24651    9.73%
   1147   357      118.3571    99      112.0000      122.0614    30736    8.98%
   1316   438      116.3042    77      112.0000      121.4685    36350    8.45%
   1471   509      118.5000    83      112.0000      121.0000    41532    8.04%
   1646   594      116.2857    87      112.0000      120.5185    47157    7.61%
   2336   826      114.0000    45      112.0000      119.2500    70110    6.47%
Elapsed time = 4.54 sec. (4282.83 ticks, tree = 0.40 MB, solutions = 4)
*  2337   533      integral     0      114.0000      119.2500    70116    4.61%
   2955   416      117.1943    75      114.0000      117.8333    88151    3.36%

GUB cover cuts applied:  21
Clique cuts applied:  35
Cover cuts applied:  21
Implied bound cuts applied:  46
Flow cuts applied:  21
Mixed integer rounding cuts applied:  126
Zero-half cuts applied:  69
Lift and project cuts applied:  18
Gomory fractional cuts applied:  10

Root node processing (before b&c):
  Real time             =    0.14 sec. (107.25 ticks)
Sequential b&c:
  Real time             =    5.80 sec. (5486.91 ticks)
                          ------------
Total (root+branch&cut) =    5.93 sec. (5594.16 ticks)

Solution pool: 6 solutions saved.

MIP - Integer optimal solution:  Objective =  1.1400000000e+02
Solution time =    5.93 sec.  Iterations = 95195  Nodes = 3433
Deterministic time = 5594.17 ticks  (942.68 ticks/sec)


Incumbent solution
Variable Name           Solution Value
F                           114.000000
y15                           1.000000
y32                           1.000000
y41                           1.000000
y44                           1.000000
y55                           1.000000
y71                           1.000000
y103                          1.000000
y109                          1.000000
y120                          1.000000
y124                          1.000000
y128                          1.000000
y137                          1.000000
y161                          1.000000
y162                          1.000000
y175                          1.000000
y178                          1.000000
y182                          1.000000
y202                          1.000000
x24x178x1                     1.000000
x26x32x1                      1.000000
x31x162x1                     1.000000
x34x41x1                      1.000000
x38x103x1                     2.000000
x24x44x2                      1.000000
x26x137x2                     1.000000
x34x41x2                      1.000000
x142x71x2                     1.000000
x142x162x2                    1.000000
x184x15x2                     1.000000
x31x178x3                     1.000000
x121x32x3                     1.000000
x121x182x3                    1.000000
x181x71x3                     1.000000
x181x182x3                    1.000000
x184x15x3                     1.000000
x15x137x2                     1.000000
x15x128x3                     1.000000
x32x109x1                     1.000000
x32x120x3                     1.000000
x41x109x1                     1.000000
x41x44x2                      1.000000
x44x175x2                     2.000000
x162x55x2                     1.000000
x55x0x2                       1.000000
x182x55x3                     1.000000
x55x0x3                       1.000000
x71x124x2                     1.000000
x71x128x3                     1.000000
x103x124x1                    1.000000
x103x202x1                    1.000000
x109x0x1                      2.000000
x182x120x3                    1.000000
x120x0x3                      2.000000
x124x0x1                      1.000000
x124x0x2                      1.000000
x128x0x3                      2.000000
x137x0x2                      2.000000
x162x161x1                    1.000000
x178x161x1                    1.000000
x161x0x1                      2.000000
x175x0x2                      2.000000
x178x202x3                    1.000000
x202x0x1                      1.000000
x202x0x3                      1.000000
s24                           5.966334
s8                            8.020000
z24z8z2                       1.000000
s14                           9.480000
z24z14z2                      1.000000
s15                           8.030000
s18                           8.130000
z24z18z2                      1.000000
s21                           9.140000
z24z21z2                      1.000000
s32                           7.952032
s44                           8.030000
z24z44z2                      1.000000
s55                           9.280000
s71                           8.233333
s87                           7.187718
s103                          8.266006
z24z103z1                     1.000000
s109                          9.290000
z24z109z1                     1.000000
s124                          9.300000
s137                          9.250000
z24z137z2                     1.000000
s153                          9.430000
z24z153z2                     1.000000
s161                          9.450000
z24z161z1                     1.000000
s175                          9.110000
z24z175z2                     1.000000
s176                          9.030000
z24z176z2                     1.000000
s178                          8.240000
z24z178z1                     1.000000
s202                          9.370000
s26                           5.954050
z26z8z2                       1.000000
z26z14z2                      1.000000
z26z18z2                      1.000000
z26z21z2                      1.000000
z26z32z1                      1.000000
z26z44z2                      1.000000
z26z103z1                     1.000000
z26z109z1                     1.000000
z26z137z2                     1.000000
z26z153z2                     1.000000
z26z161z1                     1.000000
z26z175z2                     1.000000
z26z176z2                     1.000000
s31                           5.201222
s28                           7.473279
z31z28z3                      1.000000
s36                           6.150000
s41                           6.643242
s43                           6.900422
s56                           6.010000
z31z103z1                     1.000000
z31z109z1                     1.000000
s120                          9.250000
z31z120z3                     1.000000
s128                          9.301971
z31z128z3                     1.000000
s151                          6.190000
s157                          6.170000
z31z161z1                     1.000000
s162                          6.865098
z31z162z1                     1.000000
s167                          8.235094
z31z167z3                     1.000000
z31z178z3                     1.000000
s182                          7.496952
z31z182z3                     1.000000
s185                          6.260000
s198                          8.804271
z31z198z3                     1.000000
s34                           5.277773
z34z8z2                       1.000000
z34z14z2                      1.000000
z34z18z2                      1.000000
z34z21z2                      1.000000
z34z41z1                      1.000000
z34z41z2                      1.000000
z34z44z2                      1.000000
z34z87z2                      1.000000
z34z103z1                     1.000000
z34z109z1                     1.000000
s118                          6.887873
z34z137z2                     1.000000
z34z153z2                     1.000000
z34z161z1                     1.000000
z34z175z2                     1.000000
z34z176z2                     1.000000
s38                           5.970000
z38z103z1                     1.000000
z38z109z1                     1.000000
z38z161z1                     1.000000
s121                          5.923033
z121z32z3                     1.000000
z121z120z3                    1.000000
z121z128z3                    1.000000
z121z167z3                    1.000000
z121z182z3                    1.000000
z121z198z3                    1.000000
s142                          5.423333
z142z8z2                      1.000000
z142z14z2                     1.000000
z142z18z2                     1.000000
z142z21z2                     1.000000
z142z44z2                     1.000000
z142z71z2                     1.000000
z142z87z2                     1.000000
z142z118z2                    1.000000
z142z137z2                    1.000000
z142z153z2                    1.000000
z142z162z2                    1.000000
z142z175z2                    1.000000
z142z176z2                    1.000000
s181                          5.915065
z181z28z3                     1.000000
z181z71z3                     1.000000
z181z120z3                    1.000000
z181z128z3                    1.000000
z181z167z3                    1.000000
z181z182z3                    1.000000
z181z198z3                    1.000000
s184                          5.960000
z184z8z2                      1.000000
z184z14z2                     1.000000
z184z15z2                     1.000000
z184z15z3                     1.000000
z184z18z2                     1.000000
z184z21z2                     1.000000
z184z44z2                     1.000000
z184z120z3                    1.000000
z184z128z3                    1.000000
z184z137z2                    1.000000
z184z153z2                    1.000000
z184z167z3                    1.000000
z184z175z2                    1.000000
z184z176z2                    1.000000
z184z198z3                    1.000000
z8z137z2                      1.000000
z8z153z2                      1.000000
z15z128z3                     1.000000
z15z137z2                     1.000000
z28z120z3                     1.000000
z28z198z3                     1.000000
z32z109z1                     1.000000
z32z120z3                     1.000000
z36z109z1                     1.000000
z36z161z1                     1.000000
z41z14z2                      1.000000
z41z44z2                      1.000000
z41z109z1                     1.000000
z41z153z2                     1.000000
z41z161z1                     1.000000
z43z14z2                      1.000000
z43z153z2                     1.000000
z43z161z1                     1.000000
z44z175z2                     1.000000
z56z109z1                     1.000000
z56z161z1                     1.000000
z71z124z2                     1.000000
z71z128z3                     1.000000
z87z14z2                      1.000000
z87z21z2                      1.000000
z87z137z2                     1.000000
z87z175z2                     1.000000
z87z176z2                     1.000000
z103z124z1                    1.000000
z103z161z1                    1.000000
z103z202z1                    1.000000
z118z14z2                     1.000000
z118z153z2                    1.000000
z151z120z3                    1.000000
z157z120z3                    1.000000
z162z14z2                     1.000000
z162z55z2                     1.000000
z162z153z2                    1.000000
z162z161z1                    1.000000
z167z120z3                    1.000000
z178z161z1                    1.000000
z178z202z3                    1.000000
z182z55z3                     1.000000
z182z120z3                    1.000000
z182z198z3                    1.000000
z185z120z3                    1.000000
z185z161z1                    1.000000
All other variables in the range 1-986 are 0.
